30
2 0 17
2 1 16
4 1 11
4 2 2
5 0 15
5 1 2
5 2 15
5 4 6
6 0 7
7 0 14
7 1 16
7 2 12
7 4 16
7 6 15
8 0 11
8 2 10
8 3 19
8 5 1
8 6 6
8 7 16
9 0 14
9 4 3
9 7 16
9 8 1
10 0 12
10 1 11
10 3 6
10 6 15
10 7 18
10 8 19
10 9 1
11 1 3
11 2 14
11 3 14
11 5 9
11 6 14
11 7 10
11 8 20
11 10 13
12 0 7
12 1 4
12 5 1
12 7 2
12 8 17
12 9 10
12 10 16
12 11 13
13 3 1
13 5 8
13 7 11
13 9 3
13 11 17
14 1 10
14 3 16
14 4 10
14 5 16
14 6 14
14 9 5
14 11 20
14 13 12
15 7 1
15 8 13
15 14 13
16 2 5
16 9 8
16 10 1
16 12 12
16 15 14
17 0 14
17 1 7
17 2 5
17 3 16
17 4 20
17 6 16
17 7 15
17 8 20
17 9 13
17 10 19
17 12 15
17 13 14
18 1 15
18 2 20
18 4 4
18 6 6
18 8 8
18 10 18
18 11 8
18 12 8
18 15 19
18 17 9
19 3 19
19 5 15
19 6 7
19 9 8
19 10 13
19 11 2
19 16 1
20 0 17
20 2 9
20 3 16
20 7 9
20 9 14
20 10 20
20 11 16
20 12 9
20 14 6
20 17 11
20 18 9
21 0 14
21 1 9
21 2 15
21 3 9
21 4 4
21 10 12
21 13 19
21 14 19
21 15 14
21 16 15
21 19 15
21 20 11
22 1 2
22 2 13
22 5 3
22 6 14
22 8 19
22 9 10
22 10 2
22 11 7
22 12 5
22 13 16
22 16 15
22 18 5
22 19 2
22 21 5
23 1 11
23 2 2
23 3 1
23 4 17
23 5 15
23 6 3
23 10 1
23 14 11
23 17 18
23 18 18
23 19 5
23 20 8
23 22 4
24 2 10
24 3 5
24 4 17
24 6 13
24 7 16
24 8 15
24 9 2
24 10 8
24 17 19
24 20 11
24 21 4
24 22 4
25 1 5
25 9 16
25 10 10
25 11 16
25 12 5
25 21 18
25 24 10
26 1 19
26 3 20
26 6 6
26 7 1
26 8 11
26 13 8
26 14 14
26 15 15
26 17 14
26 18 8
26 19 2
26 20 3
26 23 19
26 24 9
27 2 6
27 4 4
27 5 4
27 10 1
27 12 3
27 13 3
27 14 7
27 19 2
27 22 3
27 24 2
27 26 17
28 0 8
28 1 2
28 2 16
28 3 18
28 4 9
28 8 12
28 10 2
28 13 4
28 14 10
28 15 6
28 16 15
28 18 10
28 24 17
28 26 18
29 0 5
29 1 13
29 3 15
29 4 14
29 6 18
29 7 7
29 9 10
29 10 11
29 11 15
29 12 2
29 15 10
29 16 8
29 18 3
29 19 2
29 21 10
29 23 15
29 24 1
29 25 15
29 26 1
29 27 1
